100
128
57
46
9
54
42
58
50
2
18
20
63
6
60
7
36
11
42
63
17
1
16
19
59
47
9
8
16
63
18
58
22
45
55
38
37
11
28
56
52
2
38
61
26
13
62
34
28
1
41
51
50
17
10
49
15
48
1
21
53
51
13
4
15
2
25
22
54
58
3
33
28
30
48
64
1
22
64
1
26
29
42
2
36
37
34
3
33
42
24
55
30
23
34
27
3
21
58
5
3
7